<?xml version = "1.0" encoding="UTF-8" standalone="yes"?>
<CPLEXSolution version="1.2">
 <header
   problemName="IloCplex"
   solutionName="p0"
   solutionIndex="-1"
   objectiveValue="0"
   solutionTypeValue="3"
   solutionTypeString="primal"
   solutionStatusValue="127"
   solutionStatusString="integer feasible solution"
   solutionMethodString="mip"
   primalFeasible="0"
   dualFeasible="0"
   writeLevel="3"/>
 <quality
   epInt="1.0000000000000001e-05"
   epRHS="9.9999999999999995e-07"
   maxIntInfeas="0"
   maxPrimalInfeas="0"
   maxX="1"
   maxSlack="1"/>
 <variables>
  <variable name="x0_60" index="252" value="1"/>
  <variable name="x1_2" index="344" value="1"/>
  <variable name="x2_12" index="504" value="1"/>
  <variable name="x3_83" index="725" value="1"/>
  <variable name="x4_127" index="919" value="1"/>
  <variable name="x5_48" index="990" value="1"/>
  <variable name="x6_85" index="1177" value="1"/>
  <variable name="x7_142" index="1384" value="1"/>
  <variable name="x8_101" index="1493" value="1"/>
  <variable name="x9_102" index="1644" value="1"/>
  <variable name="x10_103" index="1795" value="1"/>
  <variable name="x11_99" index="1941" value="1"/>
  <variable name="x12_57" index="2049" value="1"/>
  <variable name="x13_33" index="2175" value="1"/>
  <variable name="x14_146" index="2438" value="1"/>
  <variable name="x15_58" index="2500" value="1"/>
  <variable name="x16_94" index="2686" value="1"/>
  <variable name="x17_121" index="2863" value="1"/>
  <variable name="x18_100" index="2992" value="1"/>
  <variable name="x19_149" index="3191" value="1"/>
  <variable name="x20_112" index="3304" value="1"/>
  <variable name="x21_147" index="3489" value="1"/>
  <variable name="x22_67" index="3559" value="1"/>
  <variable name="x23_148" index="3790" value="1"/>
  <variable name="x24_54" index="3846" value="1"/>
  <variable name="x25_9" index="3951" value="1"/>
  <variable name="x26_66" index="4158" value="1"/>
  <variable name="x27_77" index="4319" value="1"/>
  <variable name="x28_65" index="4457" value="1"/>
  <variable name="x29_138" index="4680" value="1"/>
  <variable name="x30_3" index="4695" value="1"/>
  <variable name="x31_135" index="4977" value="1"/>
  <variable name="x32_71" index="5063" value="1"/>
  <variable name="x33_50" index="5192" value="1"/>
  <variable name="x34_92" index="5384" value="1"/>
  <variable name="x35_91" index="5533" value="1"/>
  <variable name="x36_32" index="5624" value="1"/>
  <variable name="x37_93" index="5835" value="1"/>
  <variable name="x38_96" index="5988" value="1"/>
  <variable name="x39_15" index="6057" value="1"/>
  <variable name="x40_24" index="6216" value="1"/>
  <variable name="x41_36" index="6378" value="1"/>
  <variable name="x42_39" index="6531" value="1"/>
  <variable name="x43_120" index="6762" value="1"/>
  <variable name="x44_110" index="6902" value="1"/>
  <variable name="x45_59" index="7001" value="1"/>
  <variable name="x46_1" index="7093" value="1"/>
  <variable name="x47_74" index="7316" value="1"/>
  <variable name="x48_109" index="7501" value="1"/>
  <variable name="x49_30" index="7572" value="1"/>
  <variable name="x50_34" index="7726" value="1"/>
  <variable name="x51_115" index="7957" value="1"/>
  <variable name="x52_123" index="8115" value="1"/>
  <variable name="x53_46" index="8188" value="1"/>
  <variable name="x54_125" index="8417" value="1"/>
  <variable name="x55_8" index="8450" value="1"/>
  <variable name="x56_86" index="8678" value="1"/>
  <variable name="x57_84" index="8826" value="1"/>
  <variable name="x58_69" index="8961" value="1"/>
  <variable name="x59_37" index="9079" value="1"/>
  <variable name="x60_56" index="9248" value="1"/>
  <variable name="x61_128" index="9470" value="1"/>
  <variable name="x62_61" index="9553" value="1"/>
  <variable name="x63_131" index="9773" value="1"/>
  <variable name="x64_62" index="9854" value="1"/>
  <variable name="x65_111" index="10053" value="1"/>
  <variable name="x66_52" index="10144" value="1"/>
  <variable name="x67_45" index="10287" value="1"/>
  <variable name="x68_42" index="10434" value="1"/>
  <variable name="x69_20" index="10562" value="1"/>
  <variable name="x70_40" index="10732" value="1"/>
  <variable name="x71_0" index="10842" value="1"/>
  <variable name="x72_41" index="11033" value="1"/>
  <variable name="x73_14" index="11156" value="1"/>
  <variable name="x74_27" index="11319" value="1"/>
  <variable name="x75_90" index="11532" value="1"/>
  <variable name="x76_105" index="11697" value="1"/>
  <variable name="x77_82" index="11824" value="1"/>
  <variable name="x78_29" index="11921" value="1"/>
  <variable name="x79_122" index="12164" value="1"/>
  <variable name="x80_23" index="12215" value="1"/>
  <variable name="x81_53" index="12395" value="1"/>
  <variable name="x82_80" index="12572" value="1"/>
  <variable name="x83_26" index="12668" value="1"/>
  <variable name="x84_117" index="12909" value="1"/>
  <variable name="x85_114" index="13056" value="1"/>
  <variable name="x86_35" index="13127" value="1"/>
  <variable name="x87_72" index="13314" value="1"/>
  <variable name="x88_11" index="13403" value="1"/>
  <variable name="x89_38" index="13580" value="1"/>
  <variable name="x90_6" index="13698" value="1"/>
  <variable name="x91_145" index="13987" value="1"/>
  <variable name="x92_124" index="14116" value="1"/>
  <variable name="x93_81" index="14223" value="1"/>
  <variable name="x94_18" index="14310" value="1"/>
  <variable name="x95_143" index="14585" value="1"/>
  <variable name="x96_5" index="14597" value="1"/>
  <variable name="x97_63" index="14805" value="1"/>
  <variable name="x98_16" index="14908" value="1"/>
  <variable name="x99_79" index="15121" value="1"/>
  <variable name="x100_104" index="15296" value="1"/>
  <variable name="x101_119" index="15461" value="1"/>
  <variable name="x102_70" index="15562" value="1"/>
  <variable name="x103_43" index="15685" value="1"/>
  <variable name="x104_22" index="15814" value="1"/>
  <variable name="x105_130" index="16072" value="1"/>
  <variable name="x106_31" index="16123" value="1"/>
  <variable name="x107_116" index="16358" value="1"/>
  <variable name="x108_133" index="16525" value="1"/>
  <variable name="x109_75" index="16617" value="1"/>
  <variable name="x110_136" index="16828" value="1"/>
  <variable name="x111_132" index="16974" value="1"/>
  <variable name="x112_17" index="17009" value="1"/>
  <variable name="x113_134" index="17276" value="1"/>
  <variable name="x114_98" index="17390" value="1"/>
  <variable name="x115_118" index="17560" value="1"/>
  <variable name="x116_140" index="17732" value="1"/>
  <variable name="x117_113" index="17855" value="1"/>
  <variable name="x118_89" index="17981" value="1"/>
  <variable name="x119_73" index="18115" value="1"/>
  <variable name="x120_76" index="18268" value="1"/>
  <variable name="x121_51" index="18393" value="1"/>
  <variable name="x122_4" index="18496" value="1"/>
  <variable name="x123_25" index="18667" value="1"/>
  <variable name="x124_21" index="18813" value="1"/>
  <variable name="x125_137" index="19079" value="1"/>
  <variable name="x126_144" index="19236" value="1"/>
  <variable name="x127_87" index="19329" value="1"/>
  <variable name="x128_129" index="19521" value="1"/>
  <variable name="x129_108" index="19650" value="1"/>
  <variable name="x130_28" index="19720" value="1"/>
  <variable name="x131_68" index="19910" value="1"/>
  <variable name="x132_88" index="20080" value="1"/>
  <variable name="x133_7" index="20149" value="1"/>
  <variable name="x134_13" index="20305" value="1"/>
  <variable name="x135_97" index="20539" value="1"/>
  <variable name="x136_141" index="20733" value="1"/>
  <variable name="x137_55" index="20797" value="1"/>
  <variable name="x138_64" index="20956" value="1"/>
  <variable name="x139_19" index="21061" value="1"/>
  <variable name="x140_78" index="21270" value="1"/>
  <variable name="x141_139" index="21481" value="1"/>
  <variable name="x142_126" index="21618" value="1"/>
  <variable name="x143_106" index="21748" value="1"/>
  <variable name="x144_107" index="21899" value="1"/>
  <variable name="x145_47" index="21989" value="1"/>
  <variable name="x146_49" index="22141" value="1"/>
  <variable name="x147_95" index="22337" value="1"/>
  <variable name="x148_10" index="22402" value="1"/>
  <variable name="x149_44" index="22586" value="1"/>
  <variable name="u1" index="22693" value="1"/>
  <variable name="u2" index="22694" value="1"/>
  <variable name="u3" index="22695" value="1"/>
  <variable name="u4" index="22696" value="1"/>
  <variable name="u5" index="22697" value="1"/>
  <variable name="u7" index="22699" value="1"/>
  <variable name="u8" index="22700" value="1"/>
  <variable name="u9" index="22701" value="1"/>
 </variables>
</CPLEXSolution>
